5
67
75
76
181
218
241
245
253
269
276
305
309
502
503
607
656
689
691
718
736
740
809
828
829
839
840
844
854
901
911
982
985
997
1064
1079
1122
1136
1141
1179
1201
1209
1272
1278
1282
1323
1346
1365
1379
1408
1431
1438
1491
1513
1637
1651
1673
1789
1815
1828
1842
1857
1876
1911
1912
1943
1962
1993
2066
2067
2086
2094
2109
2110
2131
2134
2209
2241
2314
2328
2407
2455
2554
2672
2690
2701
2731
2737
2784
2874
2877
2881
2907
2979
3069
3109
3129
3172
3205
3206
3303
3380
3525
3541
